language Essence 1.3

letting blksize_delta be
        function(1 --> 8, 2 --> 7, 3 --> 7, 4 --> 7, 5 --> 7, 6 --> 7, 7 --> 7, 8 --> 7, 9 --> 7, 10 --> 7, 11 --> 7,
                 12 --> 7, 13 --> 7, 14 --> 7, 15 --> 7, 16 --> 8, 17 --> 8, 18 --> 7, 19 --> 7)
letting maxcars be
        function(1 --> 10, 2 --> 10, 3 --> 10, 4 --> 10, 5 --> 10, 6 --> 10, 7 --> 10, 8 --> 10, 9 --> 10, 10 --> 10,
                 11 --> 10, 12 --> 10, 13 --> 10, 14 --> 10, 15 --> 10, 16 --> 10, 17 --> 10, 18 --> 10, 19 --> 10)
letting n_cars be 229
letting n_classes be 40
letting n_options be 19
letting quantity be
        function(1 --> 5, 2 --> 27, 3 --> 5, 4 --> 5, 5 --> 7, 6 --> 5, 7 --> 5, 8 --> 8, 9 --> 5, 10 --> 7, 11 --> 5,
                 12 --> 5, 13 --> 5, 14 --> 5, 15 --> 5, 16 --> 5, 17 --> 5, 18 --> 5, 19 --> 5, 20 --> 5, 21 --> 5,
                 22 --> 5, 23 --> 5, 24 --> 5, 25 --> 5, 26 --> 5, 27 --> 5, 28 --> 5, 29 --> 5, 30 --> 5, 31 --> 5,
                 32 --> 5, 33 --> 5, 34 --> 5, 35 --> 5, 36 --> 5, 37 --> 5, 38 --> 5, 39 --> 5, 40 --> 5)
letting usage be
        relation((1, 3), (1, 9), (1, 17), (1, 18), (2, 5), (2, 16), (3, 19), (4, 6), (5, 1), (5, 9), (6, 3), (7, 3),
                 (7, 6), (7, 18), (8, 19), (9, 10), (9, 13), (10, 1), (10, 17), (11, 9), (12, 1), (12, 9), (12, 18),
                 (13, 7), (13, 19), (14, 1), (14, 2), (14, 5), (15, 19), (16, 9), (16, 16), (16, 17), (17, 13),
                 (17, 14), (18, 9), (19, 19), (20, 3), (21, 12), (21, 17), (22, 16), (23, 9), (23, 17), (24, 19),
                 (25, 9), (25, 12), (25, 13), (25, 16), (25, 19), (26, 17), (27, 1), (27, 15), (28, 14), (28, 16),
                 (28, 18), (28, 19), (29, 4), (29, 8), (29, 11), (29, 16), (30, 2), (30, 5), (30, 9), (31, 3), (31, 18),
                 (32, 2), (32, 9), (32, 11), (32, 14), (32, 17), (33, 19), (34, 12), (35, 7), (35, 8), (35, 12),
                 (36, 19), (37, 1), (37, 4), (37, 7), (37, 8), (37, 11), (37, 14), (37, 18), (38, 6), (38, 11),
                 (38, 19), (39, 16), (40, 7), (40, 15))
$ Visualisation for usage
$  1  3
$  1  9
$  1 17
$  1 18
$  2  5
$  2 16
$  3 19
$  4  6
$  5  1
$  5  9
$  6  3
$  7  3
$  7  6
$  7 18
$  8 19
$  9 10
$  9 13
$ 10  1
$ 10 17
$ 11  9
$ 12  1
$ 12  9
$ 12 18
$ 13  7
$ 13 19
$ 14  1
$ 14  2
$ 14  5
$ 15 19
$ 16  9
$ 16 16
$ 16 17
$ 17 13
$ 17 14
$ 18  9
$ 19 19
$ 20  3
$ 21 12
$ 21 17
$ 22 16
$ 23  9
$ 23 17
$ 24 19
$ 25  9
$ 25 12
$ 25 13
$ 25 16
$ 25 19
$ 26 17
$ 27  1
$ 27 15
$ 28 14
$ 28 16
$ 28 18
$ 28 19
$ 29  4
$ 29  8
$ 29 11
$ 29 16
$ 30  2
$ 30  5
$ 30  9
$ 31  3
$ 31 18
$ 32  2
$ 32  9
$ 32 11
$ 32 14
$ 32 17
$ 33 19
$ 34 12
$ 35  7
$ 35  8
$ 35 12
$ 36 19
$ 37  1
$ 37  4
$ 37  7
$ 37  8
$ 37 11
$ 37 14
$ 37 18
$ 38  6
$ 38 11
$ 38 19
$ 39 16
$ 40  7
$ 40 15

